Maximize
obj : FLOW 
Subject To 
 + f_0_6_0 <= 200
 + f_1_7_0 <= 200
 + f_2_8_0 <= 200
 + f_3_9_0 <= 200
 + f_5_11_0 <= 300
 + f_6_12_0 <= 300
 + f_7_13_0 <= 300
 + f_8_14_0 <= 300
 + f_10_17_0 <= 10000
 + f_11_17_0 <= 10000
 + f_12_17_0 <= 10000
 + f_13_17_0 <= 10000
 + f_14_17_0 <= 10000
 + f_15_0_0 <= 10000
 + f_15_1_0 <= 10000
 + f_15_2_0 <= 10000
 + f_15_3_0 <= 10000
 + f_15_4_0 <= 10000
 + f_0_6_0 - f_15_0_0=0
 + f_1_7_0 - f_15_1_0=0
 + f_2_8_0 - f_15_2_0=0
 + f_3_9_0 - f_15_3_0=0
 - f_15_4_0=0
 + f_5_11_0=0
 - f_0_6_0 + f_6_12_0=0
 - f_1_7_0 + f_7_13_0=0
 - f_2_8_0 + f_8_14_0=0
 - f_3_9_0=0
 + f_10_17_0=0
 - f_5_11_0 + f_11_17_0=0
 - f_6_12_0 + f_12_17_0=0
 - f_7_13_0 + f_13_17_0=0
 - f_8_14_0 + f_14_17_0=0
 + f_15_0_0 + f_15_1_0 + f_15_2_0 + f_15_3_0 + f_15_4_0=0
 - f_10_17_0 - f_11_17_0 - f_12_17_0 - f_13_17_0 - f_14_17_0=0
 + f_10_17_0 + f_11_17_0 + f_12_17_0 + f_13_17_0 + f_14_17_0 - 60FLOW >= 0  
BOUNDS
f_0_6_0  >= 0
f_1_7_0  >= 0
f_2_8_0  >= 0
f_3_9_0  >= 0
f_5_11_0  >= 0
f_6_12_0  >= 0
f_7_13_0  >= 0
f_8_14_0  >= 0
f_15_0_0  >= 0
f_15_1_0  >= 0
f_15_2_0  >= 0
f_15_3_0  >= 0
f_15_4_0  >= 0
FLOW > 0 
End
